100
32
6
3
20
1
2
2
3
1
1
9
3
2
3
7
2
11
3
2
2
13
25
8
13
9
16
16
10
8
9
1
3
19
4
2
3
2
3
1
2
17
2
18
3
3
2
6
2
19
1
1
2
2
1
2
17
21
2
5
3
2
1
3
3
6
17
3
5
16
1
7
1
12
17
1
1
1
5
1
3
4
1
5
17
1
4
4
3
19
1
2
4
3
3
3
1
3
2
2
2
2